(set-info :smt-lib-version 2.5)
(set-info :license |https://www.gnu.org/licenses/gpl-3.0.html|)
(set-logic AUFBVFPDTNIRA)
(set-info :source |Benchmarks generated by Florian Schanda from the public SPARK 2014 testsuite and post-processed with a script to set more precise logics.|)
(set-info :category industrial)
(set-info :status unknown)

(define-fun fp.isFinite32 ((x Float32)) Bool (not (or (fp.isInfinite x) (fp.isNaN x))))
(define-fun fp.isIntegral32 ((x Float32)) Bool (or (fp.isZero x) (and (fp.isNormal x) (= x (fp.roundToIntegral RNE x)))))
(declare-datatypes () ((tuple0 (Tuple0))))
(declare-sort us_private 0)
(declare-fun private__bool_eq (us_private us_private) Bool)
(declare-const us_null_ext__ us_private)
(declare-sort us_type_of_heap 0)
(declare-datatypes () ((us_type_of_heap__ref (mk___type_of_heap__ref (us_type_of_heap__content us_type_of_heap)))))
(declare-sort us_image 0)
(declare-datatypes () ((int__ref (mk_int__ref (int__content Int)))))
(declare-datatypes () ((bool__ref (mk_bool__ref (bool__content Bool)))))
(declare-datatypes () ((real__ref (mk_real__ref (real__content Real)))))
(declare-datatypes () ((us_private__ref (mk___private__ref (us_private__content us_private)))))
(define-fun int__ref___projection ((a int__ref)) Int (int__content a))
(define-fun bool__ref___projection ((a bool__ref)) Bool (bool__content a))
(define-fun real__ref___projection ((a real__ref)) Real (real__content a))
(define-fun us_private__ref___projection ((a us_private__ref)) us_private (us_private__content a))
(declare-fun nth ((_ BitVec 8) Int) Bool)
(declare-fun lsr ((_ BitVec 8) Int) (_ BitVec 8))
(declare-fun asr ((_ BitVec 8) Int) (_ BitVec 8))
(declare-fun lsl ((_ BitVec 8) Int) (_ BitVec 8))
(declare-fun rotate_right1 ((_ BitVec 8) Int) (_ BitVec 8))
(declare-fun rotate_left1 ((_ BitVec 8) Int) (_ BitVec 8))
(declare-fun pow2 (Int) Int)
(define-fun to_int1 ((x (_ BitVec 8))) Int (ite (bvsge x (_ bv0 8)) (bv2nat x) (- (- 256 (bv2nat x)))))
(define-fun uint_in_range ((i Int)) Bool (and (<= 0 i) (<= i 255)))
(assert (forall ((x (_ BitVec 8)) (n (_ BitVec 8))) (= (bvlshr x n) (lsr x (bv2nat n)))))
(assert (forall ((x (_ BitVec 8)) (n (_ BitVec 8))) (= (bvashr x n) (asr x (bv2nat n)))))
(assert (forall ((x (_ BitVec 8)) (n (_ BitVec 8))) (= (bvshl x n) (lsl x (bv2nat n)))))
(assert (forall ((v (_ BitVec 8)) (n (_ BitVec 8))) (= (bvor (bvshl v (bvurem n (_ bv8 8))) (bvlshr v (bvsub (_ bv8 8) (bvurem n (_ bv8 8))))) (rotate_left1 v (bv2nat n)))))
(assert (forall ((v (_ BitVec 8)) (n (_ BitVec 8))) (= (bvor (bvlshr v (bvurem n (_ bv8 8))) (bvshl v (bvsub (_ bv8 8) (bvurem n (_ bv8 8))))) (rotate_right1 v (bv2nat n)))))
(declare-fun nth_bv ((_ BitVec 8) (_ BitVec 8)) Bool)
(assert (forall ((x (_ BitVec 8)) (i (_ BitVec 8))) (= (= (nth_bv x i) true) (not (= (bvand (bvlshr x i) #x01) #x00)))))
(assert (forall ((x (_ BitVec 8)) (i (_ BitVec 8))) (= (nth x (bv2nat i)) (nth_bv x i))))
(assert (forall ((x (_ BitVec 8)) (i Int)) (=> (and (<= 0 i) (< i 256)) (= (nth_bv x ((_ int2bv 8) i)) (nth x i)))))
(declare-fun eq_sub_bv ((_ BitVec 8) (_ BitVec 8) (_ BitVec 8) (_ BitVec 8)) Bool)
(assert (forall ((a (_ BitVec 8)) (b (_ BitVec 8)) (i (_ BitVec 8)) (n (_ BitVec 8))) (let ((mask (bvshl (bvsub (bvshl #x01 n) #x01) i))) (= (eq_sub_bv a b i n) (= (bvand b mask) (bvand a mask))))))
(define-fun eq_sub ((a (_ BitVec 8)) (b (_ BitVec 8)) (i Int) (n Int)) Bool (forall ((j Int)) (=> (and (<= i j) (< j (+ i n))) (= (nth a j) (nth b j)))))
(assert (forall ((a (_ BitVec 8)) (b (_ BitVec 8)) (i (_ BitVec 8)) (n (_ BitVec 8))) (= (eq_sub a b (bv2nat i) (bv2nat n)) (eq_sub_bv a b i n))))
(declare-datatypes () ((t__ref (mk_t__ref (t__content (_ BitVec 8))))))
(declare-fun power ((_ BitVec 8) Int) (_ BitVec 8))
(define-fun bv_min ((x (_ BitVec 8)) (y (_ BitVec 8))) (_ BitVec 8) (ite (bvule x y) x y))
(define-fun bv_max ((x (_ BitVec 8)) (y (_ BitVec 8))) (_ BitVec 8) (ite (bvule x y) y x))
(define-fun is_plus_infinity ((x Float32)) Bool (and (fp.isInfinite x) (fp.isPositive x)))
(define-fun is_minus_infinity ((x Float32)) Bool (and (fp.isInfinite x) (fp.isNegative x)))
(define-fun is_plus_zero ((x Float32)) Bool (and (fp.isZero x) (fp.isPositive x)))
(define-fun is_minus_zero ((x Float32)) Bool (and (fp.isZero x) (fp.isNegative x)))
(declare-fun of_int (RoundingMode Int) Float32)
(declare-fun to_int2 (RoundingMode Float32) Int)
(declare-const max_int Int)
(define-fun in_int_range ((i Int)) Bool (and (<= (- max_int) i) (<= i max_int)))
(define-fun in_safe_int_range ((i Int)) Bool (and (<= (- 16777216) i) (<= i 16777216)))
(define-fun same_sign ((x Float32) (y Float32)) Bool (or (and (fp.isPositive x) (fp.isPositive y)) (and (fp.isNegative x) (fp.isNegative y))))
(define-fun diff_sign ((x Float32) (y Float32)) Bool (or (and (fp.isPositive x) (fp.isNegative y)) (and (fp.isNegative x) (fp.isPositive y))))
(define-fun product_sign ((z Float32) (x Float32) (y Float32)) Bool (and (=> (same_sign x y) (fp.isPositive z)) (=> (diff_sign x y) (fp.isNegative z))))
(define-fun sqr ((x Real)) Real (* x x))
(declare-fun sqrt1 (Real) Real)
(define-fun same_sign_real ((x Float32) (r Real)) Bool (or (and (fp.isPositive x) (< 0.0 r)) (and (fp.isNegative x) (< r 0.0))))
(declare-datatypes () ((t__ref1 (mk_t__ref1 (t__content1 Float32)))))
(define-fun in_range ((x Int)) Bool (or (= x 0) (= x 1)))
(declare-fun attr__ATTRIBUTE_IMAGE (Bool) us_image)
(declare-fun attr__ATTRIBUTE_VALUE__pre_check (us_image) Bool)
(declare-fun attr__ATTRIBUTE_VALUE (us_image) Bool)
(declare-sort battery_level_type 0)
(declare-fun user_eq (battery_level_type battery_level_type) Bool)
(declare-fun attr__ATTRIBUTE_IMAGE1 (Float32) us_image)
(declare-fun attr__ATTRIBUTE_VALUE__pre_check1 (us_image) Bool)
(declare-fun attr__ATTRIBUTE_VALUE1 (us_image) Float32)
(declare-const dummy battery_level_type)
(declare-datatypes () ((battery_level_type__ref (mk_battery_level_type__ref (battery_level_type__content battery_level_type)))))
(define-fun battery_level_type__ref___projection ((a battery_level_type__ref)) battery_level_type (battery_level_type__content a))
(define-fun dynamic_invariant ((temp___expr_236 Float32) (temp___is_init_232 Bool) (temp___skip_constant_233 Bool) (temp___do_toplevel_234 Bool) (temp___do_typ_inv_235 Bool)) Bool (=> (or (= temp___is_init_232 true) (fp.leq (fp.neg (fp #b0 #b11111110 #b11111111111111111111111)) (fp #b0 #b11111110 #b11111111111111111111111))) (fp.isFinite32 temp___expr_236)))
(declare-fun to_rep (battery_level_type) Float32)
(declare-fun of_rep (Float32) battery_level_type)
(assert (forall ((x battery_level_type)) (! (= (of_rep (to_rep x)) x) :pattern ((to_rep x)))))
(assert (forall ((x battery_level_type)) (! (fp.isFinite32 (to_rep x)) :pattern ((to_rep x)))))
(assert (forall ((x Float32)) (! (=> (fp.isFinite32 x) (= (to_rep (of_rep x)) x)) :pattern ((to_rep (of_rep x))))))
(declare-const battery_threshold Float32)
(declare-const attr__ATTRIBUTE_ADDRESS Int)
(declare-sort time_slot 0)
(define-fun in_range1 ((x (_ BitVec 8))) Bool (and (bvule #x00 x) (bvule x #x31)))
(define-fun in_range_int ((x Int)) Bool (and (<= 0 x) (<= x 49)))
(declare-fun attr__ATTRIBUTE_IMAGE2 ((_ BitVec 8)) us_image)
(declare-fun attr__ATTRIBUTE_VALUE__pre_check2 (us_image) Bool)
(declare-fun attr__ATTRIBUTE_VALUE2 (us_image) (_ BitVec 8))
(declare-fun user_eq1 (time_slot time_slot) Bool)
(declare-const dummy1 time_slot)
(declare-datatypes () ((time_slot__ref (mk_time_slot__ref (time_slot__content time_slot)))))
(define-fun time_slot__ref___projection ((a time_slot__ref)) time_slot (time_slot__content a))
(define-fun dynamic_invariant1 ((temp___expr_243 (_ BitVec 8)) (temp___is_init_239 Bool) (temp___skip_constant_240 Bool) (temp___do_toplevel_241 Bool) (temp___do_typ_inv_242 Bool)) Bool (=> (or (= temp___is_init_239 true) (bvule #x00 #x31)) (in_range1 temp___expr_243)))
(declare-sort time_slot_length 0)
(declare-const attr__ATTRIBUTE_MODULUS (_ BitVec 8))
(define-fun in_range2 ((x (_ BitVec 8))) Bool (and (bvule #x00 x) (bvule x #x32)))
(define-fun in_range_int1 ((x Int)) Bool (and (<= 0 x) (<= x 50)))
(declare-fun attr__ATTRIBUTE_IMAGE3 ((_ BitVec 8)) us_image)
(declare-fun attr__ATTRIBUTE_VALUE__pre_check3 (us_image) Bool)
(declare-fun attr__ATTRIBUTE_VALUE3 (us_image) (_ BitVec 8))
(declare-fun user_eq2 (time_slot_length time_slot_length) Bool)
(declare-const dummy2 time_slot_length)
(declare-datatypes () ((time_slot_length__ref (mk_time_slot_length__ref (time_slot_length__content time_slot_length)))))
(define-fun time_slot_length__ref___projection ((a time_slot_length__ref)) time_slot_length (time_slot_length__content a))
(define-fun dynamic_invariant2 ((temp___expr_250 (_ BitVec 8)) (temp___is_init_246 Bool) (temp___skip_constant_247 Bool) (temp___do_toplevel_248 Bool) (temp___do_typ_inv_249 Bool)) Bool (=> (or (= temp___is_init_246 true) (bvule #x00 #x32)) (in_range2 temp___expr_250)))
(declare-datatypes () ((map__ref (mk_map__ref (map__content (Array (_ BitVec 8) battery_level_type))))))
(declare-fun slide ((Array (_ BitVec 8) battery_level_type) (_ BitVec 8) (_ BitVec 8)) (Array (_ BitVec 8) battery_level_type))
(assert (forall ((a (Array (_ BitVec 8) battery_level_type))) (forall ((first (_ BitVec 8))) (! (= (slide a first first) a) :pattern ((slide a first first))))))
(assert (forall ((a (Array (_ BitVec 8) battery_level_type))) (forall ((old_first (_ BitVec 8))) (forall ((new_first (_ BitVec 8))) (forall ((i (_ BitVec 8))) (! (= (select (slide a old_first new_first) i) (select a (bvsub i (bvsub new_first old_first)))) :pattern ((select (slide a old_first new_first) i))))))))
(define-fun bool_eq ((a (Array (_ BitVec 8) battery_level_type)) (a__first (_ BitVec 8)) (a__last (_ BitVec 8)) (b (Array (_ BitVec 8) battery_level_type)) (b__first (_ BitVec 8)) (b__last (_ BitVec 8))) Bool (ite (and (ite (bvule a__first a__last) (and (bvule b__first b__last) (= (bvsub a__last a__first) (bvsub b__last b__first))) (bvugt b__first b__last)) (forall ((temp___idx_154 (_ BitVec 8))) (=> (and (bvule a__first temp___idx_154) (bvule temp___idx_154 a__last)) (= (to_rep (select a temp___idx_154)) (to_rep (select b (bvadd (bvsub b__first a__first) temp___idx_154))))))) true false))
(assert (forall ((a (Array (_ BitVec 8) battery_level_type)) (b (Array (_ BitVec 8) battery_level_type))) (forall ((a__first (_ BitVec 8)) (a__last (_ BitVec 8)) (b__first (_ BitVec 8)) (b__last (_ BitVec 8))) (=> (= (bool_eq b b__first b__last a a__first a__last) true) (and (ite (bvule a__first a__last) (and (bvule b__first b__last) (= (bvsub a__last a__first) (bvsub b__last b__first))) (bvugt b__first b__last)) (forall ((temp___idx_154 (_ BitVec 8))) (=> (and (bvule a__first temp___idx_154) (bvule temp___idx_154 a__last)) (= (to_rep (select a temp___idx_154)) (to_rep (select b (bvadd (bvsub b__first a__first) temp___idx_154)))))))))))
(declare-const attr__ATTRIBUTE_ADDRESS1 Int)
(declare-const attr__ATTRIBUTE_ADDRESS2 Int)
(declare-const attr__ATTRIBUTE_ADDRESS3 Int)
(declare-const attr__ATTRIBUTE_ADDRESS4 Int)
(assert (= battery_threshold (fp #b0 #b01111100 #b10011001100110011001101)))
(declare-const battery_level_at (Array (_ BitVec 8) battery_level_type))
(declare-const current_time (_ BitVec 8))
(declare-const res (_ BitVec 8))
(declare-const s (_ BitVec 8))
(declare-const failsafe__model__time_below_threshold__result (_ BitVec 8))
(declare-const temp___296 (_ BitVec 8))
(declare-const temp___295 (_ BitVec 8))
(declare-const o (_ BitVec 8))
(declare-const o1 battery_level_type)
(declare-const o2 Float32)
(declare-const o3 (_ BitVec 8))
(declare-const o4 (_ BitVec 8))
(declare-const o5 battery_level_type)
(declare-const o6 Float32)
(declare-const o7 (_ BitVec 8))
(declare-const o8 (_ BitVec 8))
(declare-const temp___303 (_ BitVec 8))
(declare-const o9 (_ BitVec 8))
(declare-const o10 (_ BitVec 8))
(declare-const o11 battery_level_type)
(declare-const o12 Float32)
(declare-const result (_ BitVec 8))
(declare-const res1 (_ BitVec 8))
(declare-const result1 (_ BitVec 8))
(declare-const s1 (_ BitVec 8))
(declare-const result2 Bool)
(declare-const result3 (_ BitVec 8))
(declare-const res2 (_ BitVec 8))
(declare-const res3 (_ BitVec 8))
(declare-const s2 (_ BitVec 8))
(declare-const result4 (_ BitVec 8))
(declare-const s3 (_ BitVec 8))
(declare-const result5 Bool)
(declare-const s4 (_ BitVec 8))
(declare-const s5 (_ BitVec 8))
(declare-const res4 (_ BitVec 8))
(declare-const s6 (_ BitVec 8))
(declare-const res5 (_ BitVec 8))
(declare-const s7 (_ BitVec 8))
(declare-const res6 (_ BitVec 8))
(declare-const s8 (_ BitVec 8))
(declare-const res7 (_ BitVec 8))
(declare-const s9 (_ BitVec 8))
(declare-const res8 (_ BitVec 8))
(declare-const s10 (_ BitVec 8))
(declare-const res9 (_ BitVec 8))
(declare-const s11 (_ BitVec 8))
(declare-const result6 (_ BitVec 8))
(declare-const failsafe__model__time_below_threshold__result1 (_ BitVec 8))
(declare-const failsafe__model__time_below_threshold__result2 (_ BitVec 8))
(declare-const failsafe__model__time_below_threshold__result3 (_ BitVec 8))
(declare-const res10 t__ref)
(declare-const s12 t__ref)
(declare-const failsafe__model__time_below_threshold__result4 t__ref)
(declare-const res11 (_ BitVec 8))
(declare-const s13 (_ BitVec 8))
(declare-const failsafe__model__time_below_threshold__result5 (_ BitVec 8))
(declare-const result7 Bool)
(declare-const result8 Bool)
(declare-const result9 Bool)
(define-fun s14 () t__ref (mk_t__ref s10))
(define-fun res12 () t__ref (mk_t__ref res8))
(define-fun s15 () t__ref (mk_t__ref s8))
(define-fun res13 () t__ref (mk_t__ref res6))
(define-fun s16 () t__ref (mk_t__ref s6))
(assert (fp.isFinite32 battery_threshold))
(assert (= (fp #b0 #b01111100 #b10011001100110011001101) battery_threshold))
(assert (in_range1 current_time))
(assert (= (mk_t__ref result) (mk_t__ref res)))
(assert (= res1 #x00))
(assert (in_range2 res1))
(assert (= (mk_t__ref result1) (mk_t__ref s)))
(assert (= s1 #x00))
(assert (=> (and (bvule #x00 s1) (bvule s1 #x31)) (= temp___296 res1)))
(assert (=> (and (bvule #x00 s1) (bvule s1 #x31)) (= temp___295 s1)))
(assert (=> (and (bvule #x00 s1) (bvule s1 #x31)) (or (and (and (and (= s1 s6) (= res1 res4)) (and (= s7 s1) (= res5 res1))) (and (and (and (and (ite (bvult current_time s1) (= o (bvadd (bvsub current_time s1) #x32)) (= o (bvsub current_time s1))) (= o1 (select battery_level_at o))) (= o2 (to_rep o1))) (= result2 (ite (fp.lt o2 battery_threshold) true false))) (not (= result2 true)))) (and (and (and (and (and (ite (bvult current_time s1) (= o (bvadd (bvsub current_time s1) #x32)) (= o (bvsub current_time s1))) (= o1 (select battery_level_at o))) (= o2 (to_rep o1))) (= result2 (ite (fp.lt o2 battery_threshold) true false))) (and (= result2 true) (and (and (= o3 (bvadd res1 #x01)) (in_range2 (bvadd res1 #x01))) (and (= res1 result3) (= res2 o3))))) (and (and (and (= s16 (mk_t__ref s4)) (= res3 res4)) (and (= s7 s5) (= res5 res3))) (and (and (bvule #x01 res2) (bvule res2 #x32)) (and (and (ite (bvuge current_time (bvsub res3 #x01)) (forall ((s17 (_ BitVec 8))) (=> (and (bvule (let ((temp___301 (bvsub current_time (bvsub res3 #x01)))) (ite (bvult current_time (bvsub res3 #x01)) (bvadd temp___301 #x32) temp___301)) s17) (bvule s17 current_time)) (fp.lt (to_rep (select battery_level_at s17)) battery_threshold))) (and (forall ((s17 (_ BitVec 8))) (=> (and (bvule #x00 s17) (bvule s17 current_time)) (fp.lt (to_rep (select battery_level_at s17)) battery_threshold))) (forall ((s17 (_ BitVec 8))) (=> (and (bvule (let ((temp___302 (bvsub current_time (bvsub res3 #x01)))) (ite (bvult current_time (bvsub res3 #x01)) (bvadd temp___302 #x32) temp___302)) s17) (bvule s17 #x31)) (fp.lt (to_rep (select battery_level_at s17)) battery_threshold))))) (= res3 (bvadd s2 #x01))) (and (and (and (=> (bvule #x00 #x31) (in_range1 s2)) (=> (bvule #x00 #x32) (in_range2 res3))) (and (bvule #x00 s2) (bvule s2 #x31))) (or (and (and (= s2 s4) (= s5 s2)) (= s2 #x31)) (and (not (= s2 #x31)) (and (and (= s3 s4) (= s5 s3)) (and (and (= s2 result4) (= s3 (bvadd s2 #x01))) (and (and (and (and (ite (bvult current_time s3) (= o4 (bvadd (bvsub current_time s3) #x32)) (= o4 (bvsub current_time s3))) (= o5 (select battery_level_at o4))) (= o6 (to_rep o5))) (= result5 (ite (fp.lt o6 battery_threshold) true false))) (not (= result5 true)))))))))))))))
(assert (=> (and (bvule #x00 s1) (bvule s1 #x31)) (= s15 s16)))
(assert (=> (and (bvule #x00 s1) (bvule s1 #x31)) (= res13 (mk_t__ref res4))))
(assert (=> (and (bvule #x00 s1) (bvule s1 #x31)) (= s9 s7)))
(assert (=> (and (bvule #x00 s1) (bvule s1 #x31)) (= res7 res5)))
(assert (=> (and (bvule #x00 s1) (bvule s1 #x31)) (= s14 s15)))
(assert (=> (and (bvule #x00 s1) (bvule s1 #x31)) (= res12 res13)))
(assert (=> (and (bvule #x00 s1) (bvule s1 #x31)) (= s11 s9)))
(assert (=> (and (bvule #x00 s1) (bvule s1 #x31)) (= res9 res7)))
(assert (=> (not (and (bvule #x00 s1) (bvule s1 #x31))) (= s1 s10)))
(assert (=> (not (and (bvule #x00 s1) (bvule s1 #x31))) (= res1 res8)))
(assert (=> (not (and (bvule #x00 s1) (bvule s1 #x31))) (= s11 s1)))
(assert (=> (not (and (bvule #x00 s1) (bvule s1 #x31))) (= res9 res1)))
(assert (= failsafe__model__time_below_threshold__result1 failsafe__model__time_below_threshold__result2))
(assert (= failsafe__model__time_below_threshold__result3 failsafe__model__time_below_threshold__result1))
(assert (= result6 failsafe__model__time_below_threshold__result))
(assert (= failsafe__model__time_below_threshold__result1 res8))
(assert (= failsafe__model__time_below_threshold__result4 (mk_t__ref failsafe__model__time_below_threshold__result2)))
(assert (= s12 s14))
(assert (= res10 res12))
(assert (= failsafe__model__time_below_threshold__result5 failsafe__model__time_below_threshold__result3))
(assert (= s13 s11))
(assert (= res11 res9))
(assert (=> (= (fp.geq (to_rep (select battery_level_at current_time)) battery_threshold) true) (= (t__content failsafe__model__time_below_threshold__result4) #x00)))
(assert (=> (forall ((s17 (_ BitVec 8))) (=> (and (bvule #x00 s17) (bvule s17 #x31)) (fp.lt (to_rep (select battery_level_at s17)) battery_threshold))) (= (t__content failsafe__model__time_below_threshold__result4) #x32)))
(assert (not (ite (= (fp.geq (to_rep (select battery_level_at current_time)) battery_threshold) false) (forall ((s17 (_ BitVec 8))) (=> (and (bvule #x00 s17) (bvule s17 #x31)) (fp.lt (to_rep (select battery_level_at s17)) battery_threshold))) false)))
(assert (not (ite (= (fp.geq (to_rep (select battery_level_at current_time)) battery_threshold) false) false true)))
(assert (=> (bvult (t__content failsafe__model__time_below_threshold__result4) #x32) (and (= o8 (t__content failsafe__model__time_below_threshold__result4)) (in_range1 (t__content failsafe__model__time_below_threshold__result4)))))
(assert (=> (bvult (t__content failsafe__model__time_below_threshold__result4) #x32) (= temp___303 (bvsub current_time o8))))
(assert (=> (bvult (t__content failsafe__model__time_below_threshold__result4) #x32) (and (= o9 (t__content failsafe__model__time_below_threshold__result4)) (in_range1 (t__content failsafe__model__time_below_threshold__result4)))))
(assert (=> (bvult (t__content failsafe__model__time_below_threshold__result4) #x32) (= result8 (ite (bvult current_time o9) true false))))
(assert (=> (bvult (t__content failsafe__model__time_below_threshold__result4) #x32) (=> (= result8 true) (= o10 (bvadd temp___303 #x32)))))
(assert (=> (bvult (t__content failsafe__model__time_below_threshold__result4) #x32) (=> (not (= result8 true)) (= o10 temp___303))))
(assert (=> (bvult (t__content failsafe__model__time_below_threshold__result4) #x32) (= o11 (select battery_level_at o10))))
(assert (=> (bvult (t__content failsafe__model__time_below_threshold__result4) #x32) (= o12 (to_rep o11))))
(assert (=> (bvult (t__content failsafe__model__time_below_threshold__result4) #x32) (= result7 (ite (fp.leq battery_threshold o12) true false))))
(assert (=> (not (bvult (t__content failsafe__model__time_below_threshold__result4) #x32)) (= result7 false)))
(assert (= result7 true))
(assert (and (= o7 (bvsub (t__content failsafe__model__time_below_threshold__result4) #x01)) (in_range1 (bvsub (t__content failsafe__model__time_below_threshold__result4) #x01))))
(assert (= result9 (ite (bvuge current_time o7) true false)))
(assert (= result9 true))
(assert (not (in_range1 (bvsub (t__content failsafe__model__time_below_threshold__result4) #x01))))
(check-sat)
(exit)
